; chc-comp19-benchmarks/./lra-ts/chc-lra-ts-0147_000.smt2
(set-logic HORN)

(declare-fun |state| ( Bool Bool Bool Bool Bool Real Real Real Real Real Real Real Real Real Real Real Real Real Real Real Real Real Real Real Real Real Real Real Real Real Real Real Real Real Real ) Bool)

(assert
  (forall ( (A Bool) (B Bool) (C Bool) (D Bool) (E Bool) (F Real) (G Real) (H Real) (I Real) (J Real) (K Real) (L Real) (M Real) (N Real) (O Real) (P Real) (Q Real) (R Real) (S Real) (T Real) (U Real) (V Real) (W Real) (X Real) (Y Real) (Z Real) (A1 Real) (B1 Real) (C1 Real) (D1 Real) (E1 Real) (F1 Real) (G1 Real) (H1 Real) (I1 Real) ) 
    (=>
      (and
        (and (not D) (not C) (not B) (not A) (not E))
      )
      (state A
       B
       C
       D
       E
       F
       G
       H
       I
       J
       K
       L
       M
       N
       O
       P
       Q
       R
       S
       T
       U
       V
       W
       X
       Y
       Z
       A1
       B1
       C1
       D1
       E1
       F1
       G1
       H1
       I1)
    )
  )
)
(assert
  (forall ( (A Bool) (B Bool) (C Bool) (D Bool) (E Bool) (F Real) (G Real) (H Real) (I Real) (J Real) (K Real) (L Real) (M Real) (N Real) (O Real) (P Real) (Q Real) (R Real) (S Real) (T Real) (U Real) (V Real) (W Real) (X Real) (Y Real) (Z Real) (A1 Real) (B1 Real) (C1 Real) (D1 Real) (E1 Real) (F1 Real) (G1 Real) (H1 Real) (I1 Real) (J1 Real) (K1 Real) (L1 Real) (M1 Real) (N1 Real) (O1 Real) (P1 Real) (Q1 Real) (R1 Real) (S1 Real) (T1 Real) (U1 Real) (V1 Real) (W1 Real) (X1 Real) (Y1 Real) (Z1 Real) (A2 Real) (B2 Real) (C2 Real) (D2 Real) (E2 Real) (F2 Real) (G2 Real) (H2 Real) (I2 Real) (J2 Real) (K2 Real) (L2 Real) (M2 Real) (N2 Bool) (O2 Bool) (P2 Bool) (Q2 Bool) (R2 Bool) (S2 Real) (T2 Real) (U2 Real) (V2 Real) (W2 Real) (X2 Real) ) 
    (=>
      (and
        (state A
       B
       C
       D
       E
       F
       G
       H
       I
       J
       K
       L
       M
       N
       O
       P
       Q
       R
       S
       T
       U
       V
       W
       X
       Y
       Z
       A1
       B1
       C1
       D1
       E1
       F1
       G1
       H1
       I1)
        (let ((a!1 (or (and (= U1 E1) (= E2 0.0) (= S E2))
               (and (= U1 F1) (= E2 1.0) (not (= E2 0.0)) (= S E2))
               (and (= U1 G1)
                    (= E2 2.0)
                    (not (= E2 1.0))
                    (not (= E2 0.0))
                    (= S E2))
               (and (= U1 H1)
                    (= E2 3.0)
                    (not (= E2 2.0))
                    (not (= E2 1.0))
                    (not (= E2 0.0))
                    (= S E2))
               (and (= U1 I1)
                    (= E2 4.0)
                    (not (= E2 3.0))
                    (not (= E2 2.0))
                    (not (= E2 1.0))
                    (not (= E2 0.0))
                    (= S E2))))
      (a!28 (or (and (= B2 D1) (= B2 0.0) (= S1 E1))
                (and (= B2 D1) (= B2 1.0) (not (= B2 0.0)) (= S1 F1))
                (and (= B2 D1)
                     (= B2 2.0)
                     (not (= B2 1.0))
                     (not (= B2 0.0))
                     (= S1 G1))
                (and (= B2 D1)
                     (= B2 3.0)
                     (not (= B2 2.0))
                     (not (= B2 1.0))
                     (not (= B2 0.0))
                     (= S1 H1))
                (and (= B2 D1)
                     (= B2 4.0)
                     (not (= B2 3.0))
                     (not (= B2 2.0))
                     (not (= B2 1.0))
                     (not (= B2 0.0))
                     (= S1 I1))))
      (a!35 (and A
                 (not B)
                 (not C)
                 D
                 (not E)
                 (not N2)
                 (not O2)
                 (not P2)
                 Q2
                 (not R2)
                 (<= 0.0 J1)
                 (= F P1)
                 (= G Q1)
                 (= H R1)
                 (= I S1)
                 (= J T1)
                 (= K U1)
                 (= L V1)
                 (= M W1)
                 (= N X1)
                 (= O Y1)
                 (= P Z1)
                 (= Q A2)
                 (= R B2)
                 (= S C2)
                 (= T D2)
                 (= U E2)
                 (= V F2)
                 (= W G2)
                 (= X H2)
                 (= Y I2)
                 (= Z J2)
                 (= A1 K2)
                 (= B1 L2)
                 (= C1 M2)
                 (= K1 I1)
                 (= L1 H1)
                 (= M1 G1)
                 (= N1 F1)
                 (= O1 E1)
                 (= (+ J1 (* (- 1.0) D1)) (- 1.0))))
      (a!37 (and A
                 (not B)
                 (not C)
                 D
                 (not E)
                 N2
                 (not O2)
                 P2
                 (not Q2)
                 (not R2)
                 (not (<= 0.0 S2))
                 (= F P1)
                 (= G Q1)
                 (= H R1)
                 (= I S1)
                 (= J T1)
                 (= K U1)
                 (= L V1)
                 (= M W1)
                 (= N X1)
                 (= O Y1)
                 (= P Z1)
                 (= Q A2)
                 (= R B2)
                 (= S C2)
                 (= T D2)
                 (= U E2)
                 (= V F2)
                 (= W G2)
                 (= X H2)
                 (= Y I2)
                 (= Z J2)
                 (= A1 K2)
                 (= B1 L2)
                 (= C1 M2)
                 (= J1 0.0)
                 (= K1 I1)
                 (= L1 H1)
                 (= M1 G1)
                 (= N1 F1)
                 (= O1 E1)
                 (= (+ D1 (* (- 1.0) S2)) 1.0))))
(let ((a!2 (and a!1 (= D2 E1) (= M2 0.0) (= (+ S (* (- 1.0) M2)) (- 1.0))))
      (a!3 (and a!1
                (= D2 F1)
                (= M2 1.0)
                (not (= M2 0.0))
                (= (+ S (* (- 1.0) M2)) (- 1.0))))
      (a!4 (and a!1
                (= D2 G1)
                (= M2 2.0)
                (not (= M2 1.0))
                (not (= M2 0.0))
                (= (+ S (* (- 1.0) M2)) (- 1.0))))
      (a!5 (and a!1
                (= D2 H1)
                (= M2 3.0)
                (not (= M2 2.0))
                (not (= M2 1.0))
                (not (= M2 0.0))
                (= (+ S (* (- 1.0) M2)) (- 1.0))))
      (a!6 (and a!1
                (= D2 I1)
                (= M2 4.0)
                (not (= M2 3.0))
                (not (= M2 2.0))
                (not (= M2 1.0))
                (not (= M2 0.0))
                (= (+ S (* (- 1.0) M2)) (- 1.0))))
      (a!29 (and a!28 (= Y1 E1) (= K2 0.0) (= (+ K2 (* (- 1.0) D1)) 1.0)))
      (a!30 (and a!28
                 (= Y1 F1)
                 (= K2 1.0)
                 (not (= K2 0.0))
                 (= (+ K2 (* (- 1.0) D1)) 1.0)))
      (a!31 (and a!28
                 (= Y1 G1)
                 (= K2 2.0)
                 (not (= K2 1.0))
                 (not (= K2 0.0))
                 (= (+ K2 (* (- 1.0) D1)) 1.0)))
      (a!32 (and a!28
                 (= Y1 H1)
                 (= K2 3.0)
                 (not (= K2 2.0))
                 (not (= K2 1.0))
                 (not (= K2 0.0))
                 (= (+ K2 (* (- 1.0) D1)) 1.0)))
      (a!33 (and a!28
                 (= Y1 I1)
                 (= K2 4.0)
                 (not (= K2 3.0))
                 (not (= K2 2.0))
                 (not (= K2 1.0))
                 (not (= K2 0.0))
                 (= (+ K2 (* (- 1.0) D1)) 1.0)))
      (a!38 (and (not A)
                 B
                 (not C)
                 (not D)
                 (not E)
                 (not N2)
                 O2
                 (not P2)
                 (not Q2)
                 (not R2)
                 a!1
                 (not (= M2 4.0))
                 (not (= M2 3.0))
                 (not (= M2 2.0))
                 (not (= M2 1.0))
                 (not (= M2 0.0))
                 (= F P1)
                 (= G Q1)
                 (= H R1)
                 (= I S1)
                 (= J T1)
                 (= L V1)
                 (= M W1)
                 (= N X1)
                 (= O Y1)
                 (= P Z1)
                 (= Q A2)
                 (= R B2)
                 (= S C2)
                 (= T D2)
                 (= V F2)
                 (= W G2)
                 (= X H2)
                 (= Y I2)
                 (= Z J2)
                 (= A1 K2)
                 (= B1 L2)
                 (= J1 D1)
                 (= K1 I1)
                 (= L1 H1)
                 (= M1 G1)
                 (= N1 F1)
                 (= O1 E1)
                 (= (+ S (* (- 1.0) M2)) (- 1.0))))
      (a!39 (and (not A)
                 B
                 (not C)
                 D
                 (not E)
                 N2
                 O2
                 (not P2)
                 (not Q2)
                 (not R2)
                 a!28
                 (not (= K2 4.0))
                 (not (= K2 3.0))
                 (not (= K2 2.0))
                 (not (= K2 1.0))
                 (not (= K2 0.0))
                 (= F P1)
                 (= G Q1)
                 (= H R1)
                 (= J T1)
                 (= K U1)
                 (= L V1)
                 (= M W1)
                 (= N X1)
                 (= O Y1)
                 (= P Z1)
                 (= Q A2)
                 (= S C2)
                 (= T D2)
                 (= U E2)
                 (= V F2)
                 (= W G2)
                 (= X H2)
                 (= Y I2)
                 (= Z J2)
                 (= B1 L2)
                 (= C1 M2)
                 (= J1 D1)
                 (= K1 I1)
                 (= L1 H1)
                 (= M1 G1)
                 (= N1 F1)
                 (= O1 E1)
                 (= (+ K2 (* (- 1.0) D1)) 1.0))))
(let ((a!7 (or (and (or a!2 a!3 a!4 a!5 a!6) (<= U1 D2) (= L2 1.0))
               (and (or a!2 a!3 a!4 a!5 a!6) (not (<= U1 D2)) (= L2 0.0))))
      (a!34 (and (not A)
                 B
                 (not C)
                 D
                 (not E)
                 N2
                 (not O2)
                 P2
                 (not Q2)
                 (not R2)
                 (or a!29 a!30 a!31 a!32 a!33)
                 (<= Y1 S1)
                 (not (<= 4.0 J1))
                 (= F P1)
                 (= G Q1)
                 (= H R1)
                 (= J T1)
                 (= K U1)
                 (= L V1)
                 (= M W1)
                 (= N X1)
                 (= P Z1)
                 (= Q A2)
                 (= S C2)
                 (= T D2)
                 (= U E2)
                 (= V F2)
                 (= W G2)
                 (= X H2)
                 (= Y I2)
                 (= Z J2)
                 (= B1 L2)
                 (= C1 M2)
                 (= K1 I1)
                 (= L1 H1)
                 (= M1 G1)
                 (= N1 F1)
                 (= O1 E1)
                 (= (+ J1 (* (- 1.0) D1)) 1.0))))
(let ((a!8 (and a!7
                (= V1 L2)
                (not (= V1 0.0))
                (= F2 E1)
                (= S H2)
                (= R1 H2)
                (= R1 0.0)
                (= (+ S (* (- 1.0) G2)) (- 1.0))))
      (a!9 (and a!7
                (= V1 L2)
                (not (= V1 0.0))
                (= F2 F1)
                (= S H2)
                (= R1 H2)
                (= R1 1.0)
                (not (= R1 0.0))
                (= (+ S (* (- 1.0) G2)) (- 1.0))))
      (a!10 (and a!7
                 (= V1 L2)
                 (not (= V1 0.0))
                 (= F2 G1)
                 (= S H2)
                 (= R1 H2)
                 (= R1 2.0)
                 (not (= R1 1.0))
                 (not (= R1 0.0))
                 (= (+ S (* (- 1.0) G2)) (- 1.0))))
      (a!11 (and a!7
                 (= V1 L2)
                 (not (= V1 0.0))
                 (= F2 H1)
                 (= S H2)
                 (= R1 H2)
                 (= R1 3.0)
                 (not (= R1 2.0))
                 (not (= R1 1.0))
                 (not (= R1 0.0))
                 (= (+ S (* (- 1.0) G2)) (- 1.0))))
      (a!12 (and a!7
                 (= V1 L2)
                 (not (= V1 0.0))
                 (= F2 I1)
                 (= S H2)
                 (= R1 H2)
                 (= R1 4.0)
                 (not (= R1 3.0))
                 (not (= R1 2.0))
                 (not (= R1 1.0))
                 (not (= R1 0.0))
                 (= (+ S (* (- 1.0) G2)) (- 1.0))))
      (a!36 (and (not A)
                 B
                 (not C)
                 (not D)
                 (not E)
                 (not N2)
                 O2
                 (not P2)
                 Q2
                 (not R2)
                 a!7
                 (= V1 L2)
                 (not (= V1 0.0))
                 (= F P1)
                 (= G Q1)
                 (= I S1)
                 (= J T1)
                 (= M W1)
                 (= N X1)
                 (= O Y1)
                 (= P Z1)
                 (= Q A2)
                 (= R B2)
                 (= S C2)
                 (= S H2)
                 (= V F2)
                 (= Y I2)
                 (= Z J2)
                 (= A1 K2)
                 (= J1 D1)
                 (= K1 I1)
                 (= L1 H1)
                 (= M1 G1)
                 (= N1 F1)
                 (= O1 E1)
                 (= R1 H2)
                 (not (= R1 4.0))
                 (not (= R1 3.0))
                 (not (= R1 2.0))
                 (not (= R1 1.0))
                 (not (= R1 0.0))
                 (= (+ S (* (- 1.0) G2)) (- 1.0)))))
(let ((a!13 (or (and (or a!8 a!9 a!10 a!11 a!12)
                     (= W1 F2)
                     (= A2 G2)
                     (= A2 0.0)
                     (= P1 E1))
                (and (or a!8 a!9 a!10 a!11 a!12)
                     (= W1 F2)
                     (= A2 G2)
                     (= A2 1.0)
                     (not (= A2 0.0))
                     (= P1 F1))
                (and (or a!8 a!9 a!10 a!11 a!12)
                     (= W1 F2)
                     (= A2 G2)
                     (= A2 2.0)
                     (not (= A2 1.0))
                     (not (= A2 0.0))
                     (= P1 G1))
                (and (or a!8 a!9 a!10 a!11 a!12)
                     (= W1 F2)
                     (= A2 G2)
                     (= A2 3.0)
                     (not (= A2 2.0))
                     (not (= A2 1.0))
                     (not (= A2 0.0))
                     (= P1 H1))
                (and (or a!8 a!9 a!10 a!11 a!12)
                     (= W1 F2)
                     (= A2 G2)
                     (= A2 4.0)
                     (not (= A2 3.0))
                     (not (= A2 2.0))
                     (not (= A2 1.0))
                     (not (= A2 0.0))
                     (= P1 I1)))))
(let ((a!14 (or (and a!13
                     (= X1 X2)
                     (= I1 U2)
                     (= P1 T1)
                     (= Q1 H2)
                     (= Q1 3.0)
                     (not (= Q1 2.0))
                     (not (= Q1 1.0))
                     (not (= Q1 0.0))
                     (= T1 X1))
                (and a!13
                     (= X1 U2)
                     (= H1 X2)
                     (= P1 T1)
                     (= Q1 H2)
                     (= Q1 4.0)
                     (not (= Q1 3.0))
                     (not (= Q1 2.0))
                     (not (= Q1 1.0))
                     (not (= Q1 0.0))
                     (= T1 X1))))
      (a!24 (or (and a!13
                     (= K1 I1)
                     (= L1 X1)
                     (= P1 T1)
                     (= Q1 H2)
                     (= Q1 3.0)
                     (not (= Q1 2.0))
                     (not (= Q1 1.0))
                     (not (= Q1 0.0))
                     (= T1 X1))
                (and a!13
                     (= K1 X1)
                     (= L1 H1)
                     (= P1 T1)
                     (= Q1 H2)
                     (= Q1 4.0)
                     (not (= Q1 3.0))
                     (not (= Q1 2.0))
                     (not (= Q1 1.0))
                     (not (= Q1 0.0))
                     (= T1 X1)))))
(let ((a!15 (or (and a!14 (= G1 W2))
                (and a!13
                     (= X1 W2)
                     (= H1 X2)
                     (= I1 U2)
                     (= P1 T1)
                     (= Q1 H2)
                     (= Q1 2.0)
                     (not (= Q1 1.0))
                     (not (= Q1 0.0))
                     (= T1 X1))))
      (a!25 (or (and a!24 (= M1 G1))
                (and a!13
                     (= K1 I1)
                     (= L1 H1)
                     (= M1 X1)
                     (= P1 T1)
                     (= Q1 H2)
                     (= Q1 2.0)
                     (not (= Q1 1.0))
                     (not (= Q1 0.0))
                     (= T1 X1)))))
(let ((a!16 (or (and a!15 (= F1 V2))
                (and a!13
                     (= X1 V2)
                     (= G1 W2)
                     (= H1 X2)
                     (= I1 U2)
                     (= P1 T1)
                     (= Q1 H2)
                     (= Q1 1.0)
                     (not (= Q1 0.0))
                     (= T1 X1))))
      (a!26 (or (and a!25 (= N1 F1))
                (and a!13
                     (= K1 I1)
                     (= L1 H1)
                     (= M1 G1)
                     (= N1 X1)
                     (= P1 T1)
                     (= Q1 H2)
                     (= Q1 1.0)
                     (not (= Q1 0.0))
                     (= T1 X1)))))
(let ((a!17 (or (and a!16 (= E1 T2))
                (and a!13
                     (= X1 T2)
                     (= F1 V2)
                     (= G1 W2)
                     (= H1 X2)
                     (= I1 U2)
                     (= P1 T1)
                     (= Q1 H2)
                     (= Q1 0.0)
                     (= T1 X1))))
      (a!27 (and (not A)
                 B
                 (not C)
                 (not D)
                 (not E)
                 N2
                 (not O2)
                 (not P2)
                 (not Q2)
                 (not R2)
                 (or (and a!26 (= O1 E1))
                     (and a!13
                          (= K1 I1)
                          (= L1 H1)
                          (= M1 G1)
                          (= N1 F1)
                          (= O1 X1)
                          (= P1 T1)
                          (= Q1 H2)
                          (= Q1 0.0)
                          (= T1 X1)))
                 (= W1 I2)
                 (= Z1 G2)
                 (not (= Z1 4.0))
                 (not (= Z1 3.0))
                 (not (= Z1 2.0))
                 (not (= Z1 1.0))
                 (not (= Z1 0.0))
                 (= I S1)
                 (= O Y1)
                 (= R B2)
                 (= S C2)
                 (= Z J2)
                 (= A1 K2)
                 (= J1 D1))))
(let ((a!18 (or (and a!17
                     (= W1 I2)
                     (= Z1 G2)
                     (= Z1 3.0)
                     (not (= Z1 2.0))
                     (not (= Z1 1.0))
                     (not (= Z1 0.0))
                     (= K1 U2)
                     (= L1 I2))
                (and a!17
                     (= W1 I2)
                     (= Z1 G2)
                     (= Z1 4.0)
                     (not (= Z1 3.0))
                     (not (= Z1 2.0))
                     (not (= Z1 1.0))
                     (not (= Z1 0.0))
                     (= K1 I2)
                     (= L1 X2)))))
(let ((a!19 (or (and a!18 (= M1 W2))
                (and a!17
                     (= W1 I2)
                     (= Z1 G2)
                     (= Z1 2.0)
                     (not (= Z1 1.0))
                     (not (= Z1 0.0))
                     (= K1 U2)
                     (= L1 X2)
                     (= M1 I2)))))
(let ((a!20 (or (and a!19 (= N1 V2))
                (and a!17
                     (= W1 I2)
                     (= Z1 G2)
                     (= Z1 1.0)
                     (not (= Z1 0.0))
                     (= K1 U2)
                     (= L1 X2)
                     (= M1 W2)
                     (= N1 I2)))))
(let ((a!21 (or (and a!20 (= O1 T2))
                (and a!17
                     (= W1 I2)
                     (= Z1 G2)
                     (= Z1 0.0)
                     (= K1 U2)
                     (= L1 X2)
                     (= M1 W2)
                     (= N1 V2)
                     (= O1 I2))
                (and a!7
                     (= V1 L2)
                     (= V1 0.0)
                     (= F P1)
                     (= G Q1)
                     (= H R1)
                     (= J T1)
                     (= M W1)
                     (= N X1)
                     (= P Z1)
                     (= Q A2)
                     (= V F2)
                     (= W G2)
                     (= X H2)
                     (= Y I2)
                     (= K1 I1)
                     (= L1 H1)
                     (= M1 G1)
                     (= N1 F1)
                     (= O1 E1)))))
(let ((a!22 (and (not A)
                 B
                 (not C)
                 (not D)
                 (not E)
                 (not N2)
                 (not O2)
                 P2
                 (not Q2)
                 (not R2)
                 a!21
                 (not (<= D1 C2))
                 (= I S1)
                 (= O Y1)
                 (= R B2)
                 (= Z J2)
                 (= A1 K2)
                 (= J1 D1)
                 (= (+ S (* (- 1.0) C2)) (- 1.0))))
      (a!23 (and (not A)
                 B
                 (not C)
                 (not D)
                 (not E)
                 N2
                 (not O2)
                 (not P2)
                 Q2
                 (not R2)
                 a!21
                 (<= D1 C2)
                 (= I S1)
                 (= O Y1)
                 (= R B2)
                 (= Z J2)
                 (= A1 K2)
                 (= J1 D1)
                 (= (+ S (* (- 1.0) C2)) (- 1.0)))))
  (or (and A B C D (not E) N2 O2 P2 Q2 (not R2))
      a!22
      a!23
      a!27
      (and (not A)
           B
           (not C)
           (not D)
           (not E)
           (not N2)
           O2
           P2
           Q2
           (not R2)
           a!13
           (= I S1)
           (= O Y1)
           (= P Z1)
           (= R B2)
           (= S C2)
           (= Y I2)
           (= Z J2)
           (= A1 K2)
           (= J1 D1)
           (= K1 I1)
           (= L1 H1)
           (= M1 G1)
           (= N1 F1)
           (= O1 E1)
           (= P1 T1)
           (= Q1 H2)
           (not (= Q1 4.0))
           (not (= Q1 3.0))
           (not (= Q1 2.0))
           (not (= Q1 1.0))
           (not (= Q1 0.0))
           (= T1 X1))
      (and (not A)
           B
           (not C)
           (not D)
           (not E)
           (not N2)
           O2
           P2
           (not Q2)
           (not R2)
           (or a!8 a!9 a!10 a!11 a!12)
           (= W1 F2)
           (= A2 G2)
           (not (= A2 4.0))
           (not (= A2 3.0))
           (not (= A2 2.0))
           (not (= A2 1.0))
           (not (= A2 0.0))
           (= F P1)
           (= G Q1)
           (= I S1)
           (= J T1)
           (= N X1)
           (= O Y1)
           (= P Z1)
           (= R B2)
           (= S C2)
           (= Y I2)
           (= Z J2)
           (= A1 K2)
           (= J1 D1)
           (= K1 I1)
           (= L1 H1)
           (= M1 G1)
           (= N1 F1)
           (= O1 E1))
      (and (not A)
           B
           (not C)
           D
           (not E)
           N2
           O2
           (not P2)
           Q2
           (not R2)
           (or a!29 a!30 a!31 a!32 a!33)
           (not (<= Y1 S1))
           (= F P1)
           (= G Q1)
           (= H R1)
           (= J T1)
           (= K U1)
           (= L V1)
           (= M W1)
           (= N X1)
           (= P Z1)
           (= Q A2)
           (= S C2)
           (= T D2)
           (= U E2)
           (= V F2)
           (= W G2)
           (= X H2)
           (= Y I2)
           (= Z J2)
           (= B1 L2)
           (= C1 M2)
           (= J1 D1)
           (= K1 I1)
           (= L1 H1)
           (= M1 G1)
           (= N1 F1)
           (= O1 E1))
      a!34
      (and (not A)
           (not B)
           (not C)
           D
           (not E)
           N2
           O2
           P2
           Q2
           (not R2)
           (= F P1)
           (= G Q1)
           (= H R1)
           (= I S1)
           (= J T1)
           (= K U1)
           (= L V1)
           (= M W1)
           (= N X1)
           (= O Y1)
           (= P Z1)
           (= Q A2)
           (= R B2)
           (= S C2)
           (= T D2)
           (= U E2)
           (= V F2)
           (= W G2)
           (= X H2)
           (= Y I2)
           (= Z J2)
           (= A1 K2)
           (= B1 L2)
           (= C1 M2)
           (= J1 D1)
           (= K1 I1)
           (= L1 H1)
           (= M1 G1)
           (= N1 F1)
           (= O1 E1))
      (and (not A)
           (not B)
           C
           (not D)
           (not E)
           N2
           O2
           P2
           Q2
           (not R2)
           (= F P1)
           (= G Q1)
           (= H R1)
           (= I S1)
           (= J T1)
           (= K U1)
           (= L V1)
           (= M W1)
           (= N X1)
           (= O Y1)
           (= P Z1)
           (= Q A2)
           (= R B2)
           (= S C2)
           (= T D2)
           (= U E2)
           (= V F2)
           (= W G2)
           (= X H2)
           (= Y I2)
           (= Z J2)
           (= A1 K2)
           (= B1 L2)
           (= C1 M2)
           (= J1 D1)
           (= K1 I1)
           (= L1 H1)
           (= M1 G1)
           (= N1 F1)
           (= O1 E1))
      (and (not A)
           (not B)
           C
           D
           (not E)
           N2
           O2
           P2
           Q2
           (not R2)
           (= F P1)
           (= G Q1)
           (= H R1)
           (= I S1)
           (= J T1)
           (= K U1)
           (= L V1)
           (= M W1)
           (= N X1)
           (= O Y1)
           (= P Z1)
           (= Q A2)
           (= R B2)
           (= S C2)
           (= T D2)
           (= U E2)
           (= V F2)
           (= W G2)
           (= X H2)
           (= Y I2)
           (= Z J2)
           (= A1 K2)
           (= B1 L2)
           (= C1 M2)
           (= J1 D1)
           (= K1 I1)
           (= L1 H1)
           (= M1 G1)
           (= N1 F1)
           (= O1 E1))
      (and (not A)
           B
           C
           (not D)
           (not E)
           N2
           O2
           P2
           Q2
           (not R2)
           (= F P1)
           (= G Q1)
           (= H R1)
           (= I S1)
           (= J T1)
           (= K U1)
           (= L V1)
           (= M W1)
           (= N X1)
           (= O Y1)
           (= P Z1)
           (= Q A2)
           (= R B2)
           (= S C2)
           (= T D2)
           (= U E2)
           (= V F2)
           (= W G2)
           (= X H2)
           (= Y I2)
           (= Z J2)
           (= A1 K2)
           (= B1 L2)
           (= C1 M2)
           (= J1 D1)
           (= K1 I1)
           (= L1 H1)
           (= M1 G1)
           (= N1 F1)
           (= O1 E1))
      (and A
           (not B)
           C
           (not D)
           (not E)
           N2
           O2
           P2
           Q2
           (not R2)
           (= F P1)
           (= G Q1)
           (= H R1)
           (= I S1)
           (= J T1)
           (= K U1)
           (= L V1)
           (= M W1)
           (= N X1)
           (= O Y1)
           (= P Z1)
           (= Q A2)
           (= R B2)
           (= S C2)
           (= T D2)
           (= U E2)
           (= V F2)
           (= W G2)
           (= X H2)
           (= Y I2)
           (= Z J2)
           (= A1 K2)
           (= B1 L2)
           (= C1 M2)
           (= J1 D1)
           (= K1 I1)
           (= L1 H1)
           (= M1 G1)
           (= N1 F1)
           (= O1 E1))
      (and A
           (not B)
           C
           D
           (not E)
           N2
           O2
           P2
           Q2
           (not R2)
           (= F P1)
           (= G Q1)
           (= H R1)
           (= I S1)
           (= J T1)
           (= K U1)
           (= L V1)
           (= M W1)
           (= N X1)
           (= O Y1)
           (= P Z1)
           (= Q A2)
           (= R B2)
           (= S C2)
           (= T D2)
           (= U E2)
           (= V F2)
           (= W G2)
           (= X H2)
           (= Y I2)
           (= Z J2)
           (= A1 K2)
           (= B1 L2)
           (= C1 M2)
           (= J1 D1)
           (= K1 I1)
           (= L1 H1)
           (= M1 G1)
           (= N1 F1)
           (= O1 E1))
      (and A
           B
           (not C)
           (not D)
           (not E)
           N2
           O2
           P2
           Q2
           (not R2)
           (= F P1)
           (= G Q1)
           (= H R1)
           (= I S1)
           (= J T1)
           (= K U1)
           (= L V1)
           (= M W1)
           (= N X1)
           (= O Y1)
           (= P Z1)
           (= Q A2)
           (= R B2)
           (= S C2)
           (= T D2)
           (= U E2)
           (= V F2)
           (= W G2)
           (= X H2)
           (= Y I2)
           (= Z J2)
           (= A1 K2)
           (= B1 L2)
           (= C1 M2)
           (= J1 D1)
           (= K1 I1)
           (= L1 H1)
           (= M1 G1)
           (= N1 F1)
           (= O1 E1))
      (and A
           B
           (not C)
           D
           (not E)
           N2
           O2
           P2
           Q2
           (not R2)
           (= F P1)
           (= G Q1)
           (= H R1)
           (= I S1)
           (= J T1)
           (= K U1)
           (= L V1)
           (= M W1)
           (= N X1)
           (= O Y1)
           (= P Z1)
           (= Q A2)
           (= R B2)
           (= S C2)
           (= T D2)
           (= U E2)
           (= V F2)
           (= W G2)
           (= X H2)
           (= Y I2)
           (= Z J2)
           (= A1 K2)
           (= B1 L2)
           (= C1 M2)
           (= J1 D1)
           (= K1 I1)
           (= L1 H1)
           (= M1 G1)
           (= N1 F1)
           (= O1 E1))
      (and A
           B
           C
           (not D)
           (not E)
           N2
           O2
           P2
           Q2
           (not R2)
           (= F P1)
           (= G Q1)
           (= H R1)
           (= I S1)
           (= J T1)
           (= K U1)
           (= L V1)
           (= M W1)
           (= N X1)
           (= O Y1)
           (= P Z1)
           (= Q A2)
           (= R B2)
           (= S C2)
           (= T D2)
           (= U E2)
           (= V F2)
           (= W G2)
           (= X H2)
           (= Y I2)
           (= Z J2)
           (= A1 K2)
           (= B1 L2)
           (= C1 M2)
           (= J1 D1)
           (= K1 I1)
           (= L1 H1)
           (= M1 G1)
           (= N1 F1)
           (= O1 E1))
      (and (not A)
           (not B)
           (not C)
           (not D)
           (not E)
           (not N2)
           (not O2)
           (not P2)
           Q2
           (not R2)
           (= F P1)
           (= G Q1)
           (= H R1)
           (= I S1)
           (= J T1)
           (= K U1)
           (= L V1)
           (= M W1)
           (= N X1)
           (= O Y1)
           (= P Z1)
           (= Q A2)
           (= R B2)
           (= S C2)
           (= T D2)
           (= U E2)
           (= V F2)
           (= W G2)
           (= X H2)
           (= Y I2)
           (= Z J2)
           (= A1 K2)
           (= B1 L2)
           (= C1 M2)
           (= J1 4.0)
           (= K1 4.0)
           (= L1 3.0)
           (= M1 2.0)
           (= N1 1.0)
           (= O1 0.0))
      (and A
           (not B)
           (not C)
           (not D)
           (not E)
           (not N2)
           (not O2)
           P2
           (not Q2)
           (not R2)
           (not (<= D1 0.0))
           (= C2 0.0)
           (= F P1)
           (= G Q1)
           (= H R1)
           (= I S1)
           (= J T1)
           (= K U1)
           (= L V1)
           (= M W1)
           (= N X1)
           (= O Y1)
           (= P Z1)
           (= Q A2)
           (= R B2)
           (= T D2)
           (= U E2)
           (= V F2)
           (= W G2)
           (= X H2)
           (= Y I2)
           (= Z J2)
           (= A1 K2)
           (= B1 L2)
           (= C1 M2)
           (= J1 D1)
           (= K1 I1)
           (= L1 H1)
           (= M1 G1)
           (= N1 F1)
           (= O1 E1))
      (and A
           (not B)
           (not C)
           (not D)
           (not E)
           N2
           (not O2)
           (not P2)
           Q2
           (not R2)
           (<= D1 0.0)
           (= C2 0.0)
           (= F P1)
           (= G Q1)
           (= H R1)
           (= I S1)
           (= J T1)
           (= K U1)
           (= L V1)
           (= M W1)
           (= N X1)
           (= O Y1)
           (= P Z1)
           (= Q A2)
           (= R B2)
           (= T D2)
           (= U E2)
           (= V F2)
           (= W G2)
           (= X H2)
           (= Y I2)
           (= Z J2)
           (= A1 K2)
           (= B1 L2)
           (= C1 M2)
           (= J1 D1)
           (= K1 I1)
           (= L1 H1)
           (= M1 G1)
           (= N1 F1)
           (= O1 E1))
      a!35
      a!36
      a!37
      a!38
      a!39
      (and (not A)
           B
           (not C)
           D
           (not E)
           N2
           (not O2)
           P2
           Q2
           (not R2)
           (= B2 D1)
           (not (= B2 4.0))
           (not (= B2 3.0))
           (not (= B2 2.0))
           (not (= B2 1.0))
           (not (= B2 0.0))
           (= F P1)
           (= G Q1)
           (= H R1)
           (= I S1)
           (= J T1)
           (= K U1)
           (= L V1)
           (= M W1)
           (= N X1)
           (= O Y1)
           (= P Z1)
           (= Q A2)
           (= S C2)
           (= T D2)
           (= U E2)
           (= V F2)
           (= W G2)
           (= X H2)
           (= Y I2)
           (= Z J2)
           (= A1 K2)
           (= B1 L2)
           (= C1 M2)
           (= J1 D1)
           (= K1 I1)
           (= L1 H1)
           (= M1 G1)
           (= N1 F1)
           (= O1 E1))
      (and (not A)
           B
           (not C)
           (not D)
           (not E)
           (not N2)
           (not O2)
           P2
           Q2
           (not R2)
           (not (= E2 4.0))
           (not (= E2 3.0))
           (not (= E2 2.0))
           (not (= E2 1.0))
           (not (= E2 0.0))
           (= F P1)
           (= G Q1)
           (= H R1)
           (= I S1)
           (= J T1)
           (= K U1)
           (= L V1)
           (= M W1)
           (= N X1)
           (= O Y1)
           (= P Z1)
           (= Q A2)
           (= R B2)
           (= S C2)
           (= S E2)
           (= T D2)
           (= V F2)
           (= W G2)
           (= X H2)
           (= Y I2)
           (= Z J2)
           (= A1 K2)
           (= B1 L2)
           (= C1 M2)
           (= J1 D1)
           (= K1 I1)
           (= L1 H1)
           (= M1 G1)
           (= N1 F1)
           (= O1 E1)))))))))))))))))
      )
      (state Q2
       P2
       O2
       N2
       R2
       P1
       Q1
       R1
       S1
       T1
       U1
       V1
       W1
       X1
       Y1
       Z1
       A2
       B2
       C2
       D2
       E2
       F2
       G2
       H2
       I2
       J2
       K2
       L2
       M2
       J1
       O1
       N1
       M1
       L1
       K1)
    )
  )
)
(assert
  (forall ( (A Bool) (B Bool) (C Bool) (D Bool) (E Bool) (F Real) (G Real) (H Real) (I Real) (J Real) (K Real) (L Real) (M Real) (N Real) (O Real) (P Real) (Q Real) (R Real) (S Real) (T Real) (U Real) (V Real) (W Real) (X Real) (Y Real) (Z Real) (A1 Real) (B1 Real) (C1 Real) (D1 Real) (E1 Real) (F1 Real) (G1 Real) (H1 Real) (I1 Real) ) 
    (=>
      (and
        (state A
       B
       C
       D
       E
       F
       G
       H
       I
       J
       K
       L
       M
       N
       O
       P
       Q
       R
       S
       T
       U
       V
       W
       X
       Y
       Z
       A1
       B1
       C1
       D1
       E1
       F1
       G1
       H1
       I1)
        (and (= D true) (= C true) (= B true) (= A true) (not E))
      )
      false
    )
  )
)

(check-sat)
(exit)
